* ENCODING=ISO-8859-1
NAME          IloCplex
ROWS
 N  obj1    
 L  c1      
 E  c2      
 E  c3      
 E  c4      
 E  c5      
 E  c6      
 E  c7      
 E  c8      
 E  c9      
 E  c10     
 L  c11     
 L  c12     
 L  c13     
 L  c14     
 L  c15     
 L  c16     
 L  c17     
 L  c18     
 L  c19     
 L  c20     
 L  c21     
 L  c22     
 L  c23     
 L  c24     
 L  c25     
 L  c26     
 L  c27     
 L  c28     
COLUMNS
    y_a_0     c1                              1
    y_a_0     c2                              1
    y_a_0     c3                             -1
    y_a_0     c11                             1
    y_a_1     c1                              1
    y_a_1     c2                              1
    y_a_1     c4                             -1
    y_a_1     c12                             1
    y_a_2     c1                              1
    y_a_2     c2                              1
    y_a_2     c5                             -1
    y_a_2     c13                             1
    y_a_17    c2                             -1
    y_a_17    c10                             1
    y_a_17    c28                             1
    y_a_3     c3                              1
    y_a_3     c7                             -1
    y_a_3     c14                             1
    y_a_4     c3                              1
    y_a_4     c6                             -1
    y_a_4     c15                             1
    y_a_5     c3                              1
    y_a_5     c4                             -1
    y_a_5     c16                             1
    y_a_6     c4                              1
    y_a_6     c6                             -1
    y_a_6     c17                             1
    y_a_7     c4                              1
    y_a_7     c5                             -1
    y_a_7     c18                             1
    y_a_15    c4                             -1
    y_a_15    c9                              1
    y_a_15    c26                             1
    y_a_8     c5                              1
    y_a_8     c9                             -1
    y_a_8     c19                             1
    y_a_9     c6                              1
    y_a_9     c9                             -1
    y_a_9     c20                             1
    y_a_10    c6                              1
    y_a_10    c8                             -1
    y_a_10    c21                             1
    y_a_11    c7                              1
    y_a_11    c8                             -1
    y_a_11    c22                             1
    y_a_12    c7                              1
    y_a_12    c10                            -1
    y_a_12    c23                             1
    y_a_13    c8                              1
    y_a_13    c10                            -1
    y_a_13    c24                             1
    y_a_14    c8                              1
    y_a_14    c9                             -1
    y_a_14    c25                             1
    y_a_16    c9                              1
    y_a_16    c10                            -1
    y_a_16    c27                             1
    MARK0000  'MARKER'                 'INTORG'
    x_a_0     c11                             6
    x_a_1     c12                             5
    x_a_2     c13                            10
    x_a_3     c14                             4
    x_a_4     c15                             4
    x_a_5     c16                             7
    x_a_6     c17                             2
    x_a_7     c18                             7
    x_a_8     c19                            10
    x_a_9     c20                             9
    x_a_10    c21                             7
    x_a_11    c22                             5
    x_a_12    c23                             3
    x_a_13    c24                             9
    x_a_14    c25                             2
    x_a_15    c26                             4
    x_a_16    c27                             9
    x_a_17    c28                         10000
    MARK0001  'MARKER'                 'INTEND'
RHS
    rhs       c11                             6
    rhs       c12                             5
    rhs       c13                            10
    rhs       c14                             4
    rhs       c15                             4
    rhs       c16                             7
    rhs       c17                             2
    rhs       c18                             7
    rhs       c19                            10
    rhs       c20                             9
    rhs       c21                             7
    rhs       c22                             5
    rhs       c23                             3
    rhs       c24                             9
    rhs       c25                             2
    rhs       c26                             4
    rhs       c27                             9
    rhs       c28                         10000
BOUNDS
 BV bnd       x_a_0   
 BV bnd       x_a_1   
 BV bnd       x_a_2   
 BV bnd       x_a_3   
 BV bnd       x_a_4   
 BV bnd       x_a_5   
 BV bnd       x_a_6   
 BV bnd       x_a_7   
 BV bnd       x_a_8   
 BV bnd       x_a_9   
 BV bnd       x_a_10  
 BV bnd       x_a_11  
 BV bnd       x_a_12  
 BV bnd       x_a_13  
 BV bnd       x_a_14  
 BV bnd       x_a_15  
 BV bnd       x_a_16  
 BV bnd       x_a_17  
ENDATA
